NAME : portcgen-15-24
COMMENT : portcgen N=15, seed=24
TYPE : TSP
DIMENSION : 15
EDGE_WEIGHT_TYPE : EUC_2D
NODE_COORD_SECTION
1 -239654 310848
2 311964 126847
3 -206922 60143
4 830984 -58277
5 -82634 75642
6 -90807 309796
7 30846 176888
8 175085 -70985
9 96310 287271
10 30299 291470
11 -146865 -495998
12 207609 -387001
13 -191364 -133174
14 211545 302005
15 -238444 -12810
